c Result of efficient AIG-to-CNF conversion using package CNF
p cnf 566 2090
2 534 535 3 -13 0
-2 -534 0
-2 13 0
-2 -3 0
-2 -535 0
-3 4 9 11 12 0
3 -12 0
3 -4 0
3 -11 0
3 -9 0
-4 559 560 5 7 0
4 -559 0
4 -7 0
4 -5 0
4 -560 0
-5 545 546 551 6 0
5 -6 0
5 -551 0
5 -545 0
5 -546 0
-6 552 553 554 0
6 -552 0
6 -554 0
6 -553 0
-7 547 548 549 8 0
7 -8 0
7 -549 0
7 -547 0
7 -548 0
-8 538 543 557 558 0
8 -558 0
8 -557 0
8 -538 0
8 -543 0
-9 537 539 542 10 0
9 -10 0
9 -542 0
9 -537 0
9 -539 0
-10 555 556 0
10 -555 0
10 -556 0
-11 540 550 0
11 -540 0
11 -550 0
-12 536 541 544 0
12 -536 0
12 -544 0
12 -541 0
-13 -561 14 443 0
-13 561 297 443 0
13 -443 0
13 -561 -14 0
13 561 -297 0
-14 15 -195 -245 252 0
-14 15 195 245 252 0
14 -252 0
14 195 -245 0
14 -15 0
14 -195 245 0
-15 16 192 0
15 -16 0
15 -192 0
-16 -17 -93 -168 -180 0
-16 17 93 -168 -180 0
-16 -17 -93 168 180 0
-16 17 93 168 180 0
16 -17 93 0
16 17 -93 0
16 168 -180 0
16 -168 180 0
-17 562 70 0
-17 -562 18 0
17 -562 -18 0
17 562 -70 0
18 563 -19 0
18 -563 -58 0
-18 -563 58 0
-18 563 19 0
19 564 -20 0
19 -564 -51 0
-19 -564 51 0
-19 564 20 0
20 -565 -48 0
20 565 -21 0
-20 565 21 0
-20 -565 48 0
-21 -22 -47 0
-21 22 47 0
21 22 -47 0
21 -22 47 0
22 -509 -541 0
22 -509 -23 0
-22 509 0
-22 541 23 0
23 -510 -542 0
23 -510 -24 0
-23 510 0
-23 542 24 0
24 -511 -543 0
24 -511 -25 0
-24 511 0
-24 543 25 0
25 -512 -544 0
25 -512 -26 0
-25 512 0
-25 544 26 0
26 -513 -545 0
26 -513 -27 0
-26 513 0
-26 545 27 0
27 -514 -546 0
27 -514 -28 0
-27 514 0
-27 546 28 0
28 -515 -547 0
28 -515 -29 0
-28 515 0
-28 547 29 0
29 -516 -548 0
29 -516 -30 0
-29 516 0
-29 548 30 0
30 -517 -549 0
30 -517 -31 0
-30 517 0
-30 549 31 0
31 -518 -550 0
31 -518 -32 0
-31 518 0
-31 550 32 0
32 -519 -551 0
32 -519 -33 0
-32 519 0
-32 551 33 0
33 -520 -552 0
33 -520 -34 0
-33 520 0
-33 552 34 0
34 -521 -553 0
34 -521 -35 0
-34 521 0
-34 553 35 0
35 -522 -554 0
35 -522 -36 0
-35 522 0
-35 554 36 0
36 -523 -555 0
36 -523 -37 0
-36 523 0
-36 555 37 0
37 -524 -556 0
37 -524 -38 0
-37 524 0
-37 556 38 0
38 -525 -557 0
38 -525 -39 0
-38 525 0
-38 557 39 0
39 -526 -558 0
39 -526 -40 0
-39 526 0
-39 558 40 0
40 -527 -559 0
40 -527 -41 0
-40 527 0
-40 559 41 0
41 -528 -560 0
41 -528 -42 0
-41 528 0
-41 560 42 0
42 -529 -561 0
42 -529 -43 0
-42 529 0
-42 561 43 0
43 -530 -562 0
43 -530 -44 0
-43 530 0
-43 562 44 0
44 -531 -563 0
44 -531 -45 0
-44 531 0
-44 563 45 0
-45 532 0
-45 564 46 0
45 -532 -564 0
45 -532 -46 0
46 -533 -565 0
-46 533 0
-46 565 0
47 -508 540 0
-47 508 0
-47 -540 0
-48 -49 -50 0
-48 49 50 0
48 49 -50 0
48 -49 50 0
49 -508 -540 0
49 -508 -22 0
-49 508 0
-49 540 22 0
50 -507 539 0
-50 507 0
-50 -539 0
51 -565 -55 0
51 565 -52 0
-51 565 52 0
-51 -565 55 0
-52 -53 -54 0
-52 53 54 0
52 53 -54 0
52 -53 54 0
53 -507 -539 0
53 -507 -49 0
-53 507 0
-53 539 49 0
54 -506 538 0
-54 506 0
-54 -538 0
-55 -56 -57 0
-55 56 57 0
55 56 -57 0
55 -56 57 0
56 -506 -538 0
56 -506 -53 0
-56 506 0
-56 538 53 0
57 -505 537 0
-57 505 0
-57 -537 0
58 564 -59 0
58 -564 -66 0
-58 -564 66 0
-58 564 59 0
59 -565 -63 0
59 565 -60 0
-59 565 60 0
-59 -565 63 0
-60 -61 -62 0
-60 61 62 0
60 61 -62 0
60 -61 62 0
61 -505 -537 0
61 -505 -56 0
-61 505 0
-61 537 56 0
62 -504 536 0
-62 504 0
-62 -536 0
-63 -64 -65 0
-63 64 65 0
63 64 -65 0
63 -64 65 0
64 -504 -536 0
64 -504 -61 0
-64 504 0
-64 536 61 0
65 -503 535 0
-65 503 0
-65 -535 0
66 565 -67 0
-66 -565 0
-66 67 0
67 68 -69 0
67 -68 69 0
-67 -68 -69 0
-67 68 69 0
68 -503 -535 0
68 -503 -64 0
-68 503 0
-68 535 64 0
69 -502 534 0
-69 502 0
-69 -534 0
70 563 -71 0
70 -563 -82 0
-70 -563 82 0
-70 563 71 0
71 564 -72 0
71 -564 -77 0
-71 -564 77 0
-71 564 72 0
72 -565 -75 0
72 565 -73 0
-72 565 73 0
-72 -565 75 0
-73 -30 -74 0
-73 30 74 0
73 30 -74 0
73 -30 74 0
74 -516 548 0
-74 516 0
-74 -548 0
-75 -29 -76 0
-75 29 76 0
75 29 -76 0
75 -29 76 0
76 -515 547 0
-76 515 0
-76 -547 0
77 -565 -80 0
77 565 -78 0
-77 565 78 0
-77 -565 80 0
-78 -28 -79 0
-78 28 79 0
78 28 -79 0
78 -28 79 0
79 -514 546 0
-79 514 0
-79 -546 0
-80 -27 -81 0
-80 27 81 0
80 27 -81 0
80 -27 81 0
81 -513 545 0
-81 513 0
-81 -545 0
82 564 -83 0
82 -564 -88 0
-82 -564 88 0
-82 564 83 0
83 -565 -86 0
83 565 -84 0
-83 565 84 0
-83 -565 86 0
-84 -26 -85 0
-84 26 85 0
84 26 -85 0
84 -26 85 0
85 -512 544 0
-85 512 0
-85 -544 0
-86 -25 -87 0
-86 25 87 0
86 25 -87 0
86 -25 87 0
87 -511 543 0
-87 511 0
-87 -543 0
88 -565 -91 0
88 565 -89 0
-88 565 89 0
-88 -565 91 0
-89 -24 -90 0
-89 24 90 0
89 24 -90 0
89 -24 90 0
90 -510 542 0
-90 510 0
-90 -542 0
-91 -23 -92 0
-91 23 92 0
91 23 -92 0
91 -23 92 0
92 -509 541 0
-92 509 0
-92 -541 0
-93 562 145 0
-93 -562 94 0
93 -562 -94 0
93 562 -145 0
94 563 -95 0
94 -563 -133 0
-94 -563 133 0
-94 563 95 0
95 564 -96 0
95 -564 -126 0
-95 -564 126 0
-95 564 96 0
96 -565 -123 0
96 565 -97 0
-96 565 97 0
-96 -565 123 0
-97 -98 -122 0
-97 98 122 0
97 98 -122 0
97 -98 122 0
-98 541 99 0
-98 509 541 0
-98 509 99 0
98 -509 -541 0
98 -541 -99 0
98 -509 -99 0
-99 542 100 0
-99 510 542 0
-99 510 100 0
99 -510 -542 0
99 -542 -100 0
99 -510 -100 0
-100 543 101 0
-100 511 543 0
-100 511 101 0
100 -511 -543 0
100 -543 -101 0
100 -511 -101 0
-101 544 102 0
-101 512 544 0
-101 512 102 0
101 -512 -544 0
101 -544 -102 0
101 -512 -102 0
-102 545 103 0
-102 513 545 0
-102 513 103 0
102 -513 -545 0
102 -545 -103 0
102 -513 -103 0
-103 546 104 0
-103 514 546 0
-103 514 104 0
103 -514 -546 0
103 -546 -104 0
103 -514 -104 0
-104 547 105 0
-104 515 547 0
-104 515 105 0
104 -515 -547 0
104 -547 -105 0
104 -515 -105 0
-105 548 106 0
-105 516 548 0
-105 516 106 0
105 -516 -548 0
105 -548 -106 0
105 -516 -106 0
-106 549 107 0
-106 517 549 0
-106 517 107 0
106 -517 -549 0
106 -549 -107 0
106 -517 -107 0
-107 550 108 0
-107 518 550 0
-107 518 108 0
107 -518 -550 0
107 -550 -108 0
107 -518 -108 0
-108 551 109 0
-108 519 551 0
-108 519 109 0
108 -519 -551 0
108 -551 -109 0
108 -519 -109 0
-109 552 110 0
-109 520 552 0
-109 520 110 0
109 -520 -552 0
109 -552 -110 0
109 -520 -110 0
-110 553 111 0
-110 521 553 0
-110 521 111 0
110 -521 -553 0
110 -553 -111 0
110 -521 -111 0
-111 554 112 0
-111 522 554 0
-111 522 112 0
111 -522 -554 0
111 -554 -112 0
111 -522 -112 0
-112 555 113 0
-112 523 555 0
-112 523 113 0
112 -523 -555 0
112 -555 -113 0
112 -523 -113 0
-113 556 114 0
-113 524 556 0
-113 524 114 0
113 -524 -556 0
113 -556 -114 0
113 -524 -114 0
-114 557 115 0
-114 525 557 0
-114 525 115 0
114 -525 -557 0
114 -557 -115 0
114 -525 -115 0
-115 558 116 0
-115 526 558 0
-115 526 116 0
115 -526 -558 0
115 -558 -116 0
115 -526 -116 0
-116 559 117 0
-116 527 559 0
-116 527 117 0
116 -527 -559 0
116 -559 -117 0
116 -527 -117 0
-117 560 118 0
-117 528 560 0
-117 528 118 0
117 -528 -560 0
117 -560 -118 0
117 -528 -118 0
-118 561 119 0
-118 529 561 0
-118 529 119 0
118 -529 -561 0
118 -561 -119 0
118 -529 -119 0
-119 562 120 0
-119 530 562 0
-119 530 120 0
119 -530 -562 0
119 -562 -120 0
119 -530 -120 0
-120 563 121 0
-120 531 563 0
-120 531 121 0
120 -531 -563 0
120 -563 -121 0
120 -531 -121 0
-121 46 45 0
-121 564 45 0
121 -45 0
121 -564 -46 0
122 508 -540 0
122 -508 540 0
-122 -508 -540 0
-122 508 540 0
-123 -124 -125 0
-123 124 125 0
123 124 -125 0
123 -124 125 0
-124 540 98 0
-124 508 540 0
-124 508 98 0
124 -508 -540 0
124 -540 -98 0
124 -508 -98 0
125 507 -539 0
125 -507 539 0
-125 -507 -539 0
-125 507 539 0
126 -565 -130 0
126 565 -127 0
-126 565 127 0
-126 -565 130 0
-127 -128 -129 0
-127 128 129 0
127 128 -129 0
127 -128 129 0
-128 539 124 0
-128 507 539 0
-128 507 124 0
128 -507 -539 0
128 -539 -124 0
128 -507 -124 0
129 506 -538 0
129 -506 538 0
-129 -506 -538 0
-129 506 538 0
-130 -131 -132 0
-130 131 132 0
130 131 -132 0
130 -131 132 0
-131 538 128 0
-131 506 538 0
-131 506 128 0
131 -506 -538 0
131 -538 -128 0
131 -506 -128 0
132 505 -537 0
132 -505 537 0
-132 -505 -537 0
-132 505 537 0
133 564 -134 0
133 -564 -141 0
-133 -564 141 0
-133 564 134 0
134 -565 -138 0
134 565 -135 0
-134 565 135 0
-134 -565 138 0
-135 -136 -137 0
-135 136 137 0
135 136 -137 0
135 -136 137 0
-136 537 131 0
-136 505 537 0
-136 505 131 0
136 -505 -537 0
136 -537 -131 0
136 -505 -131 0
137 504 -536 0
137 -504 536 0
-137 -504 -536 0
-137 504 536 0
-138 -139 -140 0
-138 139 140 0
138 139 -140 0
138 -139 140 0
-139 536 136 0
-139 504 536 0
-139 504 136 0
139 -504 -536 0
139 -536 -136 0
139 -504 -136 0
140 503 -535 0
140 -503 535 0
-140 -503 -535 0
-140 503 535 0
141 565 -142 0
-141 -565 0
-141 142 0
142 -143 144 0
142 143 -144 0
-142 143 144 0
-142 -143 -144 0
-143 535 139 0
-143 503 535 0
-143 503 139 0
143 -503 -535 0
143 -535 -139 0
143 -503 -139 0
-144 -502 -534 0
-144 502 534 0
144 502 -534 0
144 -502 534 0
145 563 -146 0
145 -563 -157 0
-145 -563 157 0
-145 563 146 0
146 564 -147 0
146 -564 -152 0
-146 -564 152 0
-146 564 147 0
147 -565 -150 0
147 565 -148 0
-147 565 148 0
-147 -565 150 0
-148 -106 -149 0
-148 106 149 0
148 106 -149 0
148 -106 149 0
149 516 -548 0
149 -516 548 0
-149 -516 -548 0
-149 516 548 0
-150 -105 -151 0
-150 105 151 0
150 105 -151 0
150 -105 151 0
151 515 -547 0
151 -515 547 0
-151 -515 -547 0
-151 515 547 0
152 -565 -155 0
152 565 -153 0
-152 565 153 0
-152 -565 155 0
-153 -104 -154 0
-153 104 154 0
153 104 -154 0
153 -104 154 0
154 514 -546 0
154 -514 546 0
-154 -514 -546 0
-154 514 546 0
-155 -103 -156 0
-155 103 156 0
155 103 -156 0
155 -103 156 0
156 513 -545 0
156 -513 545 0
-156 -513 -545 0
-156 513 545 0
157 564 -158 0
157 -564 -163 0
-157 -564 163 0
-157 564 158 0
158 -565 -161 0
158 565 -159 0
-158 565 159 0
-158 -565 161 0
-159 -102 -160 0
-159 102 160 0
159 102 -160 0
159 -102 160 0
160 512 -544 0
160 -512 544 0
-160 -512 -544 0
-160 512 544 0
-161 -101 -162 0
-161 101 162 0
161 101 -162 0
161 -101 162 0
162 511 -543 0
162 -511 543 0
-162 -511 -543 0
-162 511 543 0
163 -565 -166 0
163 565 -164 0
-163 565 164 0
-163 -565 166 0
-164 -100 -165 0
-164 100 165 0
164 100 -165 0
164 -100 165 0
165 510 -542 0
165 -510 542 0
-165 -510 -542 0
-165 510 542 0
-166 -99 -167 0
-166 99 167 0
166 99 -167 0
166 -99 167 0
167 509 -541 0
167 -509 541 0
-167 -509 -541 0
-167 509 541 0
168 562 -169 0
168 -562 -176 0
-168 -562 176 0
-168 562 169 0
169 563 -170 0
169 -563 -173 0
-169 -563 173 0
-169 563 170 0
170 564 -171 0
170 -564 -172 0
-170 -564 172 0
-170 564 171 0
171 -565 -84 0
171 565 -80 0
-171 565 80 0
-171 -565 84 0
172 -565 -89 0
172 565 -86 0
-172 565 86 0
-172 -565 89 0
173 564 -174 0
173 -564 -175 0
-173 -564 175 0
-173 564 174 0
174 565 -91 0
174 -565 -21 0
-174 -565 21 0
-174 565 91 0
175 -565 -52 0
175 565 -48 0
-175 565 48 0
-175 -565 52 0
176 563 -177 0
-176 -563 0
-176 177 0
177 564 -178 0
177 -564 -179 0
-177 -564 179 0
-177 564 178 0
178 -565 -60 0
178 565 -55 0
-178 565 55 0
-178 -565 60 0
179 -565 -67 0
179 565 -63 0
-179 565 63 0
-179 -565 67 0
180 562 -181 0
180 -562 -188 0
-180 -562 188 0
-180 562 181 0
181 563 -182 0
181 -563 -185 0
-181 -563 185 0
-181 563 182 0
182 564 -183 0
182 -564 -184 0
-182 -564 184 0
-182 564 183 0
183 -565 -159 0
183 565 -155 0
-183 565 155 0
-183 -565 159 0
184 -565 -164 0
184 565 -161 0
-184 565 161 0
-184 -565 164 0
185 564 -186 0
185 -564 -187 0
-185 -564 187 0
-185 564 186 0
186 565 -166 0
186 -565 -97 0
-186 -565 97 0
-186 565 166 0
187 -565 -127 0
187 565 -123 0
-187 565 123 0
-187 -565 127 0
188 563 -189 0
-188 -563 0
-188 189 0
189 564 -190 0
189 -564 -191 0
-189 -564 191 0
-189 564 190 0
190 -565 -135 0
190 565 -130 0
-190 565 130 0
-190 -565 135 0
191 -565 -142 0
191 565 -138 0
-191 565 138 0
-191 -565 142 0
192 562 -193 194 0
192 562 193 -194 0
-192 -562 0
-192 -193 -194 0
-192 193 194 0
193 563 -173 0
193 -563 -177 0
-193 -563 177 0
-193 563 173 0
194 563 -185 0
194 -563 -189 0
-194 -563 189 0
-194 563 185 0
-195 -561 196 0
-195 561 203 0
195 -561 -196 0
195 561 -203 0
196 562 -197 0
196 -562 -200 0
-196 -562 200 0
-196 562 197 0
197 563 -198 0
197 -563 -199 0
-197 -563 199 0
-197 563 198 0
198 564 -77 0
198 -564 -83 0
-198 -564 83 0
-198 564 77 0
199 -564 -20 0
199 564 -88 0
-199 564 88 0
-199 -564 20 0
200 563 -201 0
200 -563 -202 0
-200 -563 202 0
-200 563 201 0
201 564 -51 0
201 -564 -59 0
-201 -564 59 0
-201 564 51 0
202 564 -66 0
-202 -564 0
-202 66 0
-203 562 234 0
-203 -562 204 0
-203 562 -222 0
203 -562 -204 0
203 562 222 -234 0
204 563 -205 0
204 -563 -216 0
-204 -563 216 0
-204 563 205 0
205 564 -206 0
205 -564 -211 0
-205 -564 211 0
-205 564 206 0
206 -565 -209 0
206 565 -207 0
-206 565 207 0
-206 -565 209 0
-207 -36 -208 0
-207 36 208 0
207 36 -208 0
207 -36 208 0
208 -522 554 0
-208 522 0
-208 -554 0
-209 -35 -210 0
-209 35 210 0
209 35 -210 0
209 -35 210 0
210 -521 553 0
-210 521 0
-210 -553 0
211 -565 -214 0
211 565 -212 0
-211 565 212 0
-211 -565 214 0
-212 -34 -213 0
-212 34 213 0
212 34 -213 0
212 -34 213 0
213 -520 552 0
-213 520 0
-213 -552 0
-214 -33 -215 0
-214 33 215 0
214 33 -215 0
214 -33 215 0
215 -519 551 0
-215 519 0
-215 -551 0
216 -564 -72 0
216 564 -217 0
-216 564 217 0
-216 -564 72 0
217 -565 -220 0
217 565 -218 0
-217 565 218 0
-217 -565 220 0
-218 -32 -219 0
-218 32 219 0
218 32 -219 0
218 -32 219 0
219 -518 550 0
-219 518 0
-219 -550 0
-220 -31 -221 0
-220 31 221 0
220 31 -221 0
220 -31 221 0
221 -517 549 0
-221 517 0
-221 -549 0
222 -563 223 0
-222 563 0
-222 -223 0
223 564 -224 0
223 -564 -229 0
-223 -564 229 0
-223 564 224 0
224 -565 -227 0
224 565 -225 0
-224 565 225 0
-224 -565 227 0
-225 -40 -226 0
-225 40 226 0
225 40 -226 0
225 -40 226 0
226 -526 558 0
-226 526 0
-226 -558 0
-227 -39 -228 0
-227 39 228 0
227 39 -228 0
227 -39 228 0
228 -525 557 0
-228 525 0
-228 -557 0
229 -565 -232 0
229 565 -230 0
-229 565 230 0
-229 -565 232 0
-230 -38 -231 0
-230 38 231 0
230 38 -231 0
230 -38 231 0
231 -524 556 0
-231 524 0
-231 -556 0
-232 -37 -233 0
-232 37 233 0
232 37 -233 0
232 -37 233 0
233 -523 555 0
-233 523 0
-233 -555 0
-234 563 -564 235 0
-234 563 564 240 0
234 -563 0
234 -564 -235 0
234 564 -240 0
235 -565 -238 0
235 565 -236 0
-235 565 236 0
-235 -565 238 0
-236 -42 -237 0
-236 42 237 0
236 42 -237 0
236 -42 237 0
237 -528 560 0
-237 528 0
-237 -560 0
-238 -41 -239 0
-238 41 239 0
238 41 -239 0
238 -41 239 0
239 -527 559 0
-239 527 0
-239 -559 0
240 565 -241 0
240 -565 -243 0
-240 -565 243 0
-240 565 241 0
241 44 -242 0
241 -44 242 0
-241 -44 -242 0
-241 44 242 0
242 -530 562 0
-242 530 0
-242 -562 0
243 43 -244 0
243 -43 244 0
-243 -43 -244 0
-243 43 244 0
244 -529 561 0
-244 529 0
-244 -561 0
245 562 -246 0
245 -562 -249 0
-245 -562 249 0
-245 562 246 0
246 563 -247 0
246 -563 -248 0
-246 -563 248 0
-246 563 247 0
247 564 -152 0
247 -564 -158 0
-247 -564 158 0
-247 564 152 0
248 -564 -96 0
248 564 -163 0
-248 564 163 0
-248 -564 96 0
249 563 -250 0
249 -563 -251 0
-249 -563 251 0
-249 563 250 0
250 564 -126 0
250 -564 -134 0
-250 -564 134 0
-250 564 126 0
251 564 -141 0
-251 -564 0
-251 141 0
-252 253 266 290 0
-252 253 -266 -290 0
252 -253 0
252 266 -290 0
252 -266 290 0
253 -254 259 0
253 254 -259 0
-253 254 259 0
-253 -254 -259 0
-254 562 255 0
-254 -562 193 0
254 -562 -193 0
254 562 -255 0
255 -563 -170 0
255 563 -256 0
-255 563 256 0
-255 -563 170 0
256 564 -257 0
256 -564 -258 0
-256 -564 258 0
-256 564 257 0
257 565 -220 0
257 -565 -73 0
-257 -565 73 0
-257 565 220 0
258 -565 -78 0
258 565 -75 0
-258 565 75 0
-258 -565 78 0
-259 562 260 0
-259 -562 194 0
259 -562 -194 0
259 562 -260 0
260 -563 -182 0
260 563 -261 0
-260 563 261 0
-260 -563 182 0
261 564 -262 0
261 -564 -265 0
-261 -564 265 0
-261 564 262 0
262 565 -263 0
262 -565 -148 0
-262 -565 148 0
-262 565 263 0
-263 -107 -264 0
-263 107 264 0
263 107 -264 0
263 -107 264 0
264 517 -549 0
264 -517 549 0
-264 -517 -549 0
-264 517 549 0
265 -565 -153 0
265 565 -150 0
-265 565 150 0
-265 -565 153 0
-266 -561 267 0
-266 561 274 0
266 561 -274 0
266 -561 -267 0
-267 562 271 0
-267 -562 268 0
267 -562 -268 0
267 562 -271 0
268 563 -269 0
268 -563 -270 0
-268 -563 270 0
-268 563 269 0
269 564 -175 0
269 -564 -178 0
-269 -564 178 0
-269 564 175 0
270 564 -179 0
-270 -564 0
-270 179 0
271 563 -272 0
271 -563 -273 0
-271 -563 273 0
-271 563 272 0
272 -564 -171 0
272 564 -258 0
-272 564 258 0
-272 -564 171 0
273 564 -172 0
273 -564 -174 0
-273 -564 174 0
-273 564 172 0
-274 562 285 0
-274 -562 275 0
-274 562 -281 0
274 -562 -275 0
274 562 281 -285 0
275 563 -276 0
275 -563 -279 0
-275 -563 279 0
-275 563 276 0
276 564 -277 0
276 -564 -278 0
-276 -564 278 0
-276 564 277 0
277 565 -232 0
277 -565 -207 0
-277 -565 207 0
-277 565 232 0
278 -565 -212 0
278 565 -209 0
-278 565 209 0
-278 -565 212 0
279 -564 -257 0
279 564 -280 0
-279 564 280 0
-279 -564 257 0
280 -565 -218 0
280 565 -214 0
-280 565 214 0
-280 -565 218 0
281 -563 282 0
-281 563 0
-281 -282 0
282 564 -283 0
282 -564 -284 0
-282 -564 284 0
-282 564 283 0
283 565 -238 0
283 -565 -225 0
-283 -565 225 0
-283 565 238 0
284 -565 -230 0
284 565 -227 0
-284 565 227 0
-284 -565 230 0
-285 563 -564 286 0
-285 563 564 287 0
285 -563 0
285 -564 -286 0
285 564 -287 0
286 -565 -236 0
286 565 -243 0
-286 -565 236 0
-286 565 243 0
287 -565 -241 0
287 565 -288 0
-287 -565 241 0
-287 565 288 0
-288 -45 -289 0
-288 45 289 0
288 45 -289 0
288 -45 289 0
289 -531 563 0
-289 531 0
-289 -563 0
-290 562 294 0
-290 -562 291 0
290 -562 -291 0
290 562 -294 0
291 563 -292 0
291 -563 -293 0
-291 -563 293 0
-291 563 292 0
292 564 -187 0
292 -564 -190 0
-292 -564 190 0
-292 564 187 0
293 564 -191 0
-293 -564 0
-293 191 0
294 563 -295 0
294 -563 -296 0
-294 -563 296 0
-294 563 295 0
295 -564 -183 0
295 564 -265 0
-295 564 265 0
-295 -564 183 0
296 564 -184 0
296 -564 -186 0
-296 -564 186 0
-296 564 184 0
-297 192 298 371 429 0
297 -192 0
297 -429 0
297 -371 0
297 -298 0
-298 195 299 359 0
-298 299 -319 359 0
298 -359 0
298 -299 0
298 -195 319 0
-299 16 253 300 309 0
299 -309 0
299 -16 0
299 -300 0
299 -253 0
-300 -301 -304 308 0
-300 301 304 -307 0
-300 301 304 308 0
-300 -301 -304 -307 0
300 301 -304 0
300 -301 304 0
300 307 -308 0
301 562 -302 0
301 -562 -303 0
-301 -562 303 0
-301 562 302 0
302 -563 -269 0
302 563 -273 0
-302 563 273 0
-302 -563 269 0
303 563 -270 0
-303 -563 0
-303 270 0
304 562 -305 0
304 -562 -306 0
-304 -562 306 0
-304 562 305 0
305 -563 -292 0
305 563 -296 0
-305 563 296 0
-305 -563 292 0
306 563 -293 0
-306 -563 0
-306 293 0
307 562 -176 0
-307 -562 0
-307 176 0
308 562 -188 0
-308 -562 0
-308 188 0
-309 -196 310 0
-309 245 310 0
309 -310 0
309 196 -245 0
-310 -314 318 0
-310 311 -317 0
-310 -314 -317 0
-310 311 318 0
310 317 -318 0
310 -311 314 0
311 562 -312 0
311 -562 -313 0
-311 -562 313 0
-311 562 312 0
312 563 -199 0
312 -563 -201 0
-312 -563 201 0
-312 563 199 0
313 563 -202 0
-313 -563 0
-313 202 0
314 562 -315 0
314 -562 -316 0
-314 -562 316 0
-314 562 315 0
315 563 -248 0
315 -563 -250 0
-315 -563 250 0
-315 563 248 0
316 563 -251 0
-316 -563 0
-316 251 0
317 562 -200 0
-317 -562 0
-317 200 0
318 562 -249 0
-318 -562 0
-318 249 0
-319 562 348 0
-319 -562 320 0
-319 562 -336 0
319 -562 -320 0
319 562 336 -348 0
320 563 -321 0
320 -563 -332 0
-320 -563 332 0
-320 563 321 0
321 564 -322 0
321 -564 -327 0
-321 -564 327 0
-321 564 322 0
322 -565 -325 0
322 565 -323 0
-322 565 323 0
-322 -565 325 0
-323 -112 -324 0
-323 112 324 0
323 112 -324 0
323 -112 324 0
324 522 -554 0
324 -522 554 0
-324 -522 -554 0
-324 522 554 0
-325 -111 -326 0
-325 111 326 0
325 111 -326 0
325 -111 326 0
326 521 -553 0
326 -521 553 0
-326 -521 -553 0
-326 521 553 0
327 -565 -330 0
327 565 -328 0
-327 565 328 0
-327 -565 330 0
-328 -110 -329 0
-328 110 329 0
328 110 -329 0
328 -110 329 0
329 520 -552 0
329 -520 552 0
-329 -520 -552 0
-329 520 552 0
-330 -109 -331 0
-330 109 331 0
330 109 -331 0
330 -109 331 0
331 519 -551 0
331 -519 551 0
-331 -519 -551 0
-331 519 551 0
332 -564 -147 0
332 564 -333 0
-332 564 333 0
-332 -564 147 0
333 565 -334 0
333 -565 -263 0
-333 -565 263 0
-333 565 334 0
-334 -108 -335 0
-334 108 335 0
334 108 -335 0
334 -108 335 0
335 518 -550 0
335 -518 550 0
-335 -518 -550 0
-335 518 550 0
336 -563 337 0
-336 563 0
-336 -337 0
337 564 -338 0
337 -564 -343 0
-337 -564 343 0
-337 564 338 0
338 -565 -341 0
338 565 -339 0
-338 565 339 0
-338 -565 341 0
-339 -116 -340 0
-339 116 340 0
339 116 -340 0
339 -116 340 0
340 526 -558 0
340 -526 558 0
-340 -526 -558 0
-340 526 558 0
-341 -115 -342 0
-341 115 342 0
341 115 -342 0
341 -115 342 0
342 525 -557 0
342 -525 557 0
-342 -525 -557 0
-342 525 557 0
343 -565 -346 0
343 565 -344 0
-343 565 344 0
-343 -565 346 0
-344 -114 -345 0
-344 114 345 0
344 114 -345 0
344 -114 345 0
345 524 -556 0
345 -524 556 0
-345 -524 -556 0
-345 524 556 0
-346 -113 -347 0
-346 113 347 0
346 113 -347 0
346 -113 347 0
347 523 -555 0
347 -523 555 0
-347 -523 -555 0
-347 523 555 0
-348 563 -564 349 0
-348 563 564 354 0
348 -563 0
348 -564 -349 0
348 564 -354 0
349 -565 -352 0
349 565 -350 0
-349 565 350 0
-349 -565 352 0
-350 -118 -351 0
-350 118 351 0
350 118 -351 0
350 -118 351 0
351 528 -560 0
351 -528 560 0
-351 -528 -560 0
-351 528 560 0
-352 -117 -353 0
-352 117 353 0
352 117 -353 0
352 -117 353 0
353 527 -559 0
353 -527 559 0
-353 -527 -559 0
-353 527 559 0
354 565 -355 0
354 -565 -357 0
-354 -565 357 0
-354 565 355 0
355 120 -356 0
355 -120 356 0
-355 -120 -356 0
-355 120 356 0
356 530 -562 0
356 -530 562 0
-356 -530 -562 0
-356 530 562 0
357 119 -358 0
357 -119 358 0
-357 -119 -358 0
-357 119 358 0
358 529 -561 0
358 -529 561 0
-358 -529 -561 0
-358 529 561 0
-359 360 369 370 0
-359 360 -369 -370 0
359 -360 0
359 -369 370 0
359 369 -370 0
-360 362 363 366 0
-360 -361 -363 -366 0
-360 -361 363 366 0
-360 362 -363 -366 0
360 363 -366 0
360 -363 366 0
360 361 -362 0
361 562 -268 0
-361 -562 0
-361 268 0
362 562 -291 0
-362 -562 0
-362 291 0
363 562 -364 0
363 -562 -365 0
-363 -562 365 0
-363 562 364 0
364 -563 -19 0
364 563 -82 0
-364 563 82 0
-364 -563 19 0
365 563 -58 0
-365 -563 0
-365 58 0
366 562 -367 0
366 -562 -368 0
-366 -562 368 0
-366 562 367 0
367 -563 -95 0
367 563 -157 0
-367 563 157 0
-367 -563 95 0
368 563 -133 0
-368 -563 0
-368 133 0
369 562 -313 0
-369 -562 0
-369 313 0
370 562 -316 0
-370 -562 0
-370 316 0
-371 372 373 374 428 0
-371 -372 -373 374 428 0
371 -428 0
371 -372 373 0
371 -374 0
371 372 -373 0
372 562 -365 0
-372 -562 0
-372 365 0
373 562 -368 0
-373 -562 0
-373 368 0
-374 375 376 377 390 0
-374 -375 -376 377 390 0
374 -377 0
374 375 -376 0
374 -390 0
374 -375 376 0
375 562 -303 0
-375 -562 0
-375 303 0
376 562 -306 0
-376 -562 0
-376 306 0
377 -378 382 0
377 378 -382 0
-377 378 382 0
-377 -378 -382 0
-378 562 379 0
-378 -562 255 0
378 -562 -255 0
378 562 -379 0
379 563 -380 0
379 -563 -381 0
-379 -563 381 0
-379 563 380 0
380 -564 -277 0
380 564 -284 0
-380 564 284 0
-380 -564 277 0
381 564 -278 0
381 -564 -280 0
-381 -564 280 0
-381 564 278 0
-382 562 383 0
-382 -562 260 0
382 -562 -260 0
382 562 -383 0
383 563 -384 0
383 -563 -387 0
-383 -563 387 0
-383 563 384 0
384 564 -385 0
384 -564 -386 0
-384 -564 386 0
-384 564 385 0
385 -565 -344 0
385 565 -341 0
-385 565 341 0
-385 -565 344 0
386 565 -346 0
386 -565 -323 0
-386 -565 323 0
-386 565 346 0
387 564 -388 0
387 -564 -389 0
-387 -564 389 0
-387 564 388 0
388 -565 -328 0
388 565 -325 0
-388 565 325 0
-388 -565 328 0
389 -565 -334 0
389 565 -330 0
-389 565 330 0
-389 -565 334 0
-390 391 395 401 0
-390 -391 -395 401 0
390 -401 0
390 391 -395 0
390 -391 395 0
-391 562 393 0
-391 392 393 0
391 -393 0
391 -562 -392 0
392 -563 -256 0
392 563 -381 0
-392 563 381 0
-392 -563 256 0
393 562 563 -394 0
393 562 -563 -380 0
-393 -562 0
-393 -563 380 0
-393 563 394 0
394 -564 -283 0
394 564 -286 0
-394 564 286 0
-394 -564 283 0
-395 562 397 0
-395 396 397 0
395 -397 0
395 -562 -396 0
396 -563 -261 0
396 563 -387 0
-396 563 387 0
-396 -563 261 0
397 562 563 -398 0
397 562 -563 -384 0
-397 -562 0
-397 -563 384 0
-397 563 398 0
398 564 -399 0
398 -564 -400 0
-398 -564 400 0
-398 564 399 0
399 -565 -350 0
399 565 -357 0
-399 -565 350 0
-399 565 357 0
400 565 -352 0
400 -565 -339 0
-400 -565 339 0
-400 565 352 0
-401 -402 -406 412 420 0
-401 402 406 412 420 0
-401 -402 -406 -412 -420 0
-401 402 406 -412 -420 0
401 -402 406 0
401 402 -406 0
401 -412 420 0
401 412 -420 0
-402 562 403 0
-402 -562 379 0
402 -562 -379 0
402 562 -403 0
403 -563 -394 0
403 563 -405 0
403 563 -404 0
-403 -563 394 0
-403 563 404 405 0
404 532 -533 564 0
404 -533 564 565 0
404 -532 533 564 -565 0
-404 533 565 0
-404 532 533 0
-404 -564 0
-404 -532 -533 -565 0
405 -564 -287 0
-405 564 0
-405 287 0
-406 562 407 0
-406 -562 383 0
406 -562 -383 0
406 562 -407 0
407 -563 -398 0
407 563 -408 0
407 563 -404 0
-407 -563 398 0
-407 563 404 408 0
408 -564 -409 0
-408 564 0
-408 409 0
409 -565 -355 0
409 565 -410 0
-409 565 410 0
-409 -565 355 0
410 121 -411 0
410 -121 411 0
-410 -121 -411 0
-410 121 411 0
411 531 -563 0
411 -531 563 0
-411 -531 -563 0
-411 531 563 0
-412 562 416 0
-412 -562 413 0
412 -562 -413 0
412 562 -416 0
413 563 -414 0
413 -563 -415 0
-413 -563 415 0
-413 563 414 0
414 -564 -206 0
414 564 -229 0
-414 564 229 0
-414 -564 206 0
415 564 -211 0
415 -564 -217 0
-415 -564 217 0
-415 564 211 0
416 -563 -417 0
416 563 -419 0
416 563 -418 0
-416 -563 417 0
-416 563 418 419 0
417 -564 -224 0
417 564 -235 0
-417 564 235 0
-417 -564 224 0
418 -532 564 565 0
418 564 -565 -288 0
-418 -564 0
-418 532 565 0
-418 -565 288 0
419 -564 -240 0
-419 564 0
-419 240 0
-420 562 424 0
-420 -562 421 0
420 -562 -421 0
420 562 -424 0
421 563 -422 0
421 -563 -423 0
-421 -563 423 0
-421 563 422 0
422 -564 -322 0
422 564 -343 0
-422 564 343 0
-422 -564 322 0
423 564 -327 0
423 -564 -333 0
-423 -564 333 0
-423 564 327 0
424 -563 -425 0
424 563 -427 0
424 563 -426 0
-424 -563 425 0
-424 563 426 427 0
425 -564 -338 0
425 564 -349 0
-425 564 349 0
-425 -564 338 0
426 -532 564 565 0
426 564 -565 -410 0
-426 -564 0
-426 532 565 0
-426 -565 410 0
427 -564 -354 0
-427 564 0
-427 354 0
-428 -318 361 0
-428 317 -362 0
-428 317 361 0
-428 -318 -362 0
428 -317 318 0
428 -361 362 0
-429 -266 430 -433 440 0
-429 266 430 433 440 0
429 -440 0
429 266 -433 0
429 -430 0
429 -266 433 0
-430 -267 -290 -431 -432 0
-430 267 290 -431 -432 0
-430 -267 -290 431 432 0
-430 267 290 431 432 0
430 -267 290 0
430 267 -290 0
430 431 -432 0
430 -431 432 0
431 562 -18 0
-431 -562 0
-431 18 0
432 562 -94 0
-432 -562 0
-432 94 0
-433 562 439 0
-433 -562 434 0
-433 562 -437 0
433 -562 -434 0
433 562 437 -439 0
434 563 -435 0
434 -563 -436 0
-434 -563 436 0
-434 563 435 0
435 564 -386 0
435 -564 -388 0
-435 -564 388 0
-435 564 386 0
436 -564 -262 0
436 564 -389 0
-436 564 389 0
-436 -564 262 0
437 -563 438 0
-437 563 0
-437 -438 0
438 -564 -385 0
438 564 -400 0
-438 564 400 0
-438 -564 385 0
-439 563 -564 399 0
-439 563 564 409 0
439 -563 0
439 -564 -399 0
439 564 -409 0
-440 307 441 442 0
-440 -308 441 442 0
440 -442 0
440 -441 0
440 -307 308 0
441 195 -319 0
-441 -195 0
-441 319 0
-442 -245 314 0
-442 196 -311 0
-442 -245 -311 0
-442 196 314 0
442 311 -314 0
442 -196 245 0
-443 444 446 448 457 0
-443 -444 -446 448 457 0
443 -457 0
443 -444 446 0
443 -448 0
443 444 -446 0
444 -307 -445 0
444 561 -445 0
-444 445 0
-444 -561 307 0
-445 561 -562 169 0
-445 561 562 392 0
445 -561 0
445 -562 -169 0
445 562 -392 0
446 -308 -447 0
446 561 -447 0
-446 447 0
-446 -561 308 0
-447 561 -562 181 0
-447 561 562 396 0
447 -561 0
447 -562 -181 0
447 562 -396 0
-448 -449 -451 453 455 0
-448 449 451 453 455 0
-448 -449 -451 -453 -455 0
-448 449 451 -453 -455 0
448 -449 451 0
448 449 -451 0
448 -453 455 0
448 453 -455 0
-449 -561 361 0
-449 561 450 0
449 -561 -361 0
449 561 -450 0
-450 562 275 0
-450 -562 271 0
450 -562 -271 0
450 562 -275 0
-451 -561 362 0
-451 561 452 0
451 -561 -362 0
451 561 -452 0
-452 562 434 0
-452 -562 294 0
452 -562 -294 0
452 562 -434 0
-453 -561 431 0
-453 561 454 0
453 -561 -431 0
453 561 -454 0
-454 562 413 0
-454 -562 70 0
454 -562 -70 0
454 562 -413 0
-455 -561 432 0
-455 561 456 0
455 -561 -432 0
455 561 -456 0
-456 562 421 0
-456 -562 145 0
456 -562 -145 0
456 562 -421 0
-457 -458 -462 466 479 0
-457 458 462 466 479 0
457 -479 0
457 458 -462 0
457 -466 0
457 -458 462 0
-458 -561 311 0
-458 561 459 461 0
458 -561 -311 0
458 561 -461 0
458 561 -459 0
459 -562 -460 0
-459 562 0
-459 460 0
460 -563 -198 0
460 563 -216 0
-460 563 216 0
-460 -563 198 0
461 562 563 -223 0
461 562 -563 -205 0
-461 -562 0
-461 -563 205 0
-461 563 223 0
-462 -561 314 0
-462 561 463 465 0
462 -561 -314 0
462 561 -465 0
462 561 -463 0
463 -562 -464 0
-463 562 0
-463 464 0
464 -563 -247 0
464 563 -332 0
-464 563 332 0
-464 -563 247 0
465 562 563 -337 0
465 562 -563 -321 0
-465 -562 0
-465 -563 321 0
-465 563 337 0
-466 467 469 471 475 0
-466 -467 -469 471 475 0
-466 467 469 -471 -475 0
-466 -467 -469 -471 -475 0
466 467 -469 0
466 -467 469 0
466 -471 475 0
466 471 -475 0
467 -369 -468 0
467 561 -468 0
-467 468 0
-467 -561 369 0
-468 561 -562 312 0
-468 561 562 460 0
468 -561 0
468 -562 -312 0
468 562 -460 0
469 -370 -470 0
469 561 -470 0
-469 470 0
-469 -561 370 0
-470 561 -562 315 0
-470 561 562 464 0
470 -561 0
470 -562 -315 0
470 562 -464 0
-471 -561 363 0
-471 561 472 474 0
471 -561 -363 0
471 561 -474 0
471 561 -472 0
472 -562 -473 0
-472 562 0
-472 473 0
473 -563 -71 0
473 563 -415 0
-473 563 415 0
-473 -563 71 0
474 562 563 -417 0
474 562 -563 -414 0
-474 -562 0
-474 -563 414 0
-474 563 417 0
-475 -561 366 0
-475 561 476 478 0
475 -561 -366 0
475 561 -478 0
475 561 -476 0
476 -562 -477 0
-476 562 0
-476 477 0
477 -563 -146 0
477 563 -423 0
-477 563 423 0
-477 -563 146 0
478 562 563 -425 0
478 562 -563 -422 0
-478 -562 0
-478 -563 422 0
-478 563 425 0
-479 480 482 484 493 0
-479 -480 -482 484 493 0
479 -484 0
479 480 -482 0
479 -493 0
479 -480 482 0
480 -372 -481 0
480 561 -481 0
-480 481 0
-480 -561 372 0
-481 561 -562 364 0
-481 561 562 473 0
481 -561 0
481 -562 -364 0
481 562 -473 0
482 -373 -483 0
482 561 -483 0
-482 483 0
-482 -561 373 0
-483 561 -562 367 0
-483 561 562 477 0
483 -561 0
483 -562 -367 0
483 562 -477 0
484 -485 489 0
484 485 -489 0
-484 485 489 0
-484 -485 -489 0
-485 -561 301 0
-485 561 486 488 0
485 -561 -301 0
485 561 -488 0
485 561 -486 0
486 -562 -487 0
-486 562 0
-486 487 0
487 -563 -272 0
487 563 -279 0
-487 563 279 0
-487 -563 272 0
488 562 563 -282 0
488 562 -563 -276 0
-488 -562 0
-488 -563 276 0
-488 563 282 0
-489 -561 304 0
-489 561 490 492 0
489 -561 -304 0
489 561 -492 0
489 561 -490 0
490 -562 -491 0
-490 562 0
-490 491 0
491 -563 -295 0
491 563 -436 0
-491 563 436 0
-491 -563 295 0
492 562 563 -438 0
492 562 -563 -435 0
-492 -562 0
-492 -563 435 0
-492 563 438 0
-493 494 496 -498 -500 0
-493 -494 -496 -498 -500 0
-493 494 496 498 500 0
-493 -494 -496 498 500 0
493 494 -496 0
493 -494 496 0
493 498 -500 0
493 -498 500 0
494 -375 -495 0
494 561 -495 0
-494 495 0
-494 -561 375 0
-495 561 -562 302 0
-495 561 562 487 0
495 -561 0
495 -562 -302 0
495 562 -487 0
496 -376 -497 0
496 561 -497 0
-496 497 0
-496 -561 376 0
-497 561 -562 305 0
-497 561 562 491 0
497 -561 0
497 -562 -305 0
497 562 -491 0
498 -317 -499 0
498 561 -499 0
-498 499 0
-498 -561 317 0
-499 561 -562 197 0
-499 561 562 204 0
499 -561 0
499 -562 -197 0
499 562 -204 0
500 -318 -501 0
500 561 -501 0
-500 501 0
-500 -561 318 0
-501 561 -562 246 0
-501 561 562 320 0
501 -561 0
501 -562 -246 0
501 562 -320 0
-566 0
2 0

